0
Node Left Objective IInf Best_Integer Best_Bound ItCnt Gap
0+ 0 nan nan 3416.1452 -341.6145 nan 110.00%
0+ 0 nan nan 70.5986 -341.6145 nan 583.88%
0 0 35.2235 6 70.5986 35.2235 90 50.11%
0 0 35.9460 9 70.5986 Fract:6 108 49.08%
0+ 0 nan nan 55.4433 35.9460 nan 35.17%
0 0 37.0072 9 55.4433 Fract:7 114 33.25%
0+ 0 nan nan 51.2496 37.0072 nan 27.79%
0 0 37.4965 9 51.2496 Fract:6 126 26.84%
0 0 37.8429 11 51.2496 Fract:8 136 26.16%
0 0 37.9989 8 51.2496 Fract:3 147 25.86%
0 0 38.0244 9 51.2496 Fract:2 148 25.81%
0 2 38.0244 9 51.2496 38.0484 148 25.76%
CPXPARAM_MIP_Cuts_Gomory-Disjunctive-MIRCut:Gomory 0
CPXPARAM_MIP_Cuts_Gomory-Disjunctive-MIRCut:Disjunctive 10
CPXPARAM_MIP_Cuts_Gomory-Disjunctive-MIRCut:MIRCut 0
1
Node Left Objective IInf Best_Integer Best_Bound ItCnt Gap
0+ 0 nan nan 3561.5109 -356.1511 nan 110.00%
0+ 0 nan nan -2.0853 -356.1511 nan ---
0 0 -37.4604 6 -2.0853 -37.4604 102 ---
0 0 -37.2272 11 -2.0853 Fract:5 117 ---
0+ 0 nan nan -19.0836 -37.2272 nan 95.07%
0 0 -35.8021 9 -19.0836 Fract:10 130 87.61%
0 0 -34.9822 12 -19.0836 Fract:8 141 83.31%
0 0 -34.6662 12 -19.0836 Fract:7 157 81.65%
0 0 -34.6260 11 -19.0836 Fract:7 166 81.44%
0 0 -34.6173 10 -19.0836 Fract:2 169 81.40%
0 2 -34.6173 10 -19.0836 -34.6137 169 81.38%
CPXPARAM_MIP_Cuts_Gomory-Disjunctive-MIRCut:Gomory 0
CPXPARAM_MIP_Cuts_Gomory-Disjunctive-MIRCut:Disjunctive 10
CPXPARAM_MIP_Cuts_Gomory-Disjunctive-MIRCut:MIRCut 0
2
Node Left Objective IInf Best_Integer Best_Bound ItCnt Gap
0+ 0 nan nan 4398.5936 -439.8594 nan 110.00%
0+ 0 nan nan 29.8310 -439.8594 nan ---
0 0 25.3990 4 29.8310 25.3990 102 14.86%
0 0 25.3990 2 29.8310 Fract:3 107 14.86%
0+ 0 nan nan 25.8717 25.3990 nan 1.83%
0 0 25.3990 2 25.8717 Fract:1 109 1.83%
0 0 25.3990 2 25.8717 Fract:1 111 1.83%
0 2 25.3990 2 25.8717 25.3990 111 1.83%
CPXPARAM_MIP_Cuts_Gomory-Disjunctive-MIRCut:Gomory 0
CPXPARAM_MIP_Cuts_Gomory-Disjunctive-MIRCut:Disjunctive 5
CPXPARAM_MIP_Cuts_Gomory-Disjunctive-MIRCut:MIRCut 0
3
Node Left Objective IInf Best_Integer Best_Bound ItCnt Gap
0+ 0 nan nan 3026.1120 -302.6112 nan 110.00%
0+ 0 nan nan -16.9664 -302.6112 nan ---
0 0 -21.3985 2 -16.9664 -21.3985 112 26.12%
0 0 -21.3985 2 -16.9664 Fract:1 114 26.12%
0 0 -21.3985 2 -16.9664 Fract:1 116 26.12%
0+ 0 nan nan -20.6187 -21.3985 nan 3.78%
0+ 0 nan nan -20.9258 -21.3985 nan 2.26%
0 2 -21.3985 2 -20.9258 -21.3985 116 2.26%
CPXPARAM_MIP_Cuts_Gomory-Disjunctive-MIRCut:Gomory 0
CPXPARAM_MIP_Cuts_Gomory-Disjunctive-MIRCut:Disjunctive 2
CPXPARAM_MIP_Cuts_Gomory-Disjunctive-MIRCut:MIRCut 0
4
Node Left Objective IInf Best_Integer Best_Bound ItCnt Gap
0+ 0 nan nan 3445.8727 -344.5873 nan 110.00%
0+ 0 nan nan 61.1938 -344.5873 nan 663.11%
0 0 45.3867 8 61.1938 45.3867 98 25.83%
0 0 45.3941 10 61.1938 Fract:4 109 25.82%
0+ 0 nan nan 53.2355 45.3941 nan 14.73%
0 0 45.9615 9 53.2355 Fract:3 119 13.66%
0 0 46.2357 12 53.2355 Fract:8 133 13.15%
0 0 46.3754 11 53.2355 Fract:7 145 12.89%
0 0 46.3878 11 53.2355 Fract:4 150 12.86%
0+ 0 nan nan 52.2361 46.3878 nan 11.20%
0 2 46.4199 9 52.2361 46.4219 150 11.13%
CPXPARAM_MIP_Cuts_Gomory-Disjunctive-MIRCut:Gomory 0
CPXPARAM_MIP_Cuts_Gomory-Disjunctive-MIRCut:Disjunctive 10
CPXPARAM_MIP_Cuts_Gomory-Disjunctive-MIRCut:MIRCut 0
5
Node Left Objective IInf Best_Integer Best_Bound ItCnt Gap
0+ 0 nan nan 3859.4816 -385.9482 nan 110.00%
0+ 0 nan nan -20.1319 -385.9482 nan ---
0 0 -35.9390 9 -20.1319 -35.9390 105 78.52%
0 0 -35.9330 10 -20.1319 Fract:6 120 78.49%
0+ 0 nan nan -28.0524 -35.9330 nan 28.09%
0 0 -35.3643 12 -28.0524 Fract:3 131 26.07%
0 0 -35.0778 11 -28.0524 Fract:10 150 25.04%
0+ 0 nan nan -28.6751 -35.0778 nan 22.33%
0 0 -35.0152 11 -28.6751 Fract:6 160 22.11%
0 0 -34.9660 12 -28.6751 Fract:5 172 21.94%
0+ 0 nan nan -29.0896 -34.9660 nan 20.20%
0 2 -34.9660 12 -29.0896 -34.9578 172 20.17%
CPXPARAM_MIP_Cuts_Gomory-Disjunctive-MIRCut:Gomory 0
CPXPARAM_MIP_Cuts_Gomory-Disjunctive-MIRCut:Disjunctive 9
CPXPARAM_MIP_Cuts_Gomory-Disjunctive-MIRCut:MIRCut 0
6
Node Left Objective IInf Best_Integer Best_Bound ItCnt Gap
0+ 0 nan nan 3456.7371 -345.6737 nan 110.00%
0+ 0 nan nan 47.1585 -345.6737 nan 833.00%
0 0 45.2780 5 47.1585 45.2780 112 3.99%
0+ 0 nan nan 46.6268 45.2780 nan 2.89%
0 0 45.2780 2 46.6268 Fract:3 118 2.89%
0+ 0 nan nan 45.3506 45.2780 nan 0.16%
0 2 45.2780 2 45.3506 45.2780 118 0.16%
CPXPARAM_MIP_Cuts_Gomory-Disjunctive-MIRCut:Gomory 0
CPXPARAM_MIP_Cuts_Gomory-Disjunctive-MIRCut:Disjunctive 3
CPXPARAM_MIP_Cuts_Gomory-Disjunctive-MIRCut:MIRCut 0
7
Node Left Objective IInf Best_Integer Best_Bound ItCnt Gap
0+ 0 nan nan 3747.8425 -374.7843 nan 110.00%
0+ 0 nan nan -30.7094 -374.7843 nan ---
0 0 -32.5899 4 -30.7094 -32.5899 99 6.12%
0+ 0 nan nan -31.7786 -32.5899 nan 2.55%
0 0 -32.5899 2 -31.7786 Fract:4 104 2.55%
0 0 -32.5899 2 -31.7786 Fract:1 106 2.55%
0 0 -32.5899 2 -31.7786 Fract:1 108 2.55%
0 2 -32.5899 2 -31.7786 -32.5899 108 2.55%
CPXPARAM_MIP_Cuts_Gomory-Disjunctive-MIRCut:Gomory 0
CPXPARAM_MIP_Cuts_Gomory-Disjunctive-MIRCut:Disjunctive 6
CPXPARAM_MIP_Cuts_Gomory-Disjunctive-MIRCut:MIRCut 0
8
Node Left Objective IInf Best_Integer Best_Bound ItCnt Gap
0+ 0 nan nan 4064.8026 -406.4803 nan 110.00%
0+ 0 nan nan 73.7169 -406.4803 nan 651.41%
0 0 57.5230 6 73.7169 57.5230 88 21.97%
0 0 57.5231 7 73.7169 Fract:4 98 21.97%
0+ 0 nan nan 71.2760 57.5231 nan 19.30%
0 0 57.9302 7 71.2760 Fract:5 107 18.72%
0+ 0 nan nan 63.0930 57.9302 nan 8.18%
0 0 58.4580 9 63.0930 Fract:4 118 7.35%
0+ 0 nan nan 60.9699 58.4580 nan 4.12%
0 0 58.5413 7 60.9699 Fract:5 123 3.98%
0 0 58.5784 11 60.9699 Fract:2 130 3.92%
0 0 58.5818 11 60.9699 Fract:1 132 3.92%
0 2 58.5935 6 60.9699 58.6040 132 3.88%
CPXPARAM_MIP_Cuts_Gomory-Disjunctive-MIRCut:Gomory 0
CPXPARAM_MIP_Cuts_Gomory-Disjunctive-MIRCut:Disjunctive 10
CPXPARAM_MIP_Cuts_Gomory-Disjunctive-MIRCut:MIRCut 0
9
Node Left Objective IInf Best_Integer Best_Bound ItCnt Gap
0+ 0 nan nan 3914.8782 -391.4878 nan 110.00%
0+ 0 nan nan -3.0814 -391.4878 nan ---
0 0 -19.2753 6 -3.0814 -19.2753 94 525.54%
0 0 -19.2753 6 -3.0814 Fract:3 101 525.54%
0+ 0 nan nan -3.3365 -19.2753 nan 477.72%
0 0 -19.1600 7 -3.3365 Fract:4 111 474.26%
0+ 0 nan nan -13.2960 -19.1600 nan 44.10%
0 0 -18.5768 9 -13.2960 Fract:4 116 39.72%
0+ 0 nan nan -13.4381 -18.5768 nan 38.24%
0 0 -18.4202 8 -13.4381 Fract:3 119 37.07%
0+ 0 nan nan -15.8413 -18.4202 nan 16.28%
0 0 -18.3289 10 -15.8413 Fract:3 130 15.70%
0 0 -18.1896 7 -15.8413 Fract:3 143 14.82%
0 2 -18.1863 7 -15.8413 -18.1777 143 14.75%
CPXPARAM_MIP_Cuts_Gomory-Disjunctive-MIRCut:Gomory 0
CPXPARAM_MIP_Cuts_Gomory-Disjunctive-MIRCut:Disjunctive 7
CPXPARAM_MIP_Cuts_Gomory-Disjunctive-MIRCut:MIRCut 0
10
Node Left Objective IInf Best_Integer Best_Bound ItCnt Gap
0+ 0 nan nan 5437.4645 -543.7465 nan 110.00%
0+ 0 nan nan 44.6359 -543.7465 nan ---
0 0 43.7964 4 44.6359 43.7964 101 1.88%
0 0 43.7964 2 44.6359 Disjcuts:2 106 1.88%
0 0 43.7964 2 44.6359 Fract:1 108 1.88%
0+ 0 nan nan 43.8125 43.7964 nan 0.04%
0 0 43.7964 2 43.8125 Fract:1 110 0.04%
0 2 43.7964 2 43.8125 43.7964 110 0.04%
CPXPARAM_MIP_Cuts_Gomory-Disjunctive-MIRCut:Gomory 0
CPXPARAM_MIP_Cuts_Gomory-Disjunctive-MIRCut:Disjunctive 2
CPXPARAM_MIP_Cuts_Gomory-Disjunctive-MIRCut:MIRCut 2
11
Node Left Objective IInf Best_Integer Best_Bound ItCnt Gap
0+ 0 nan nan 4494.1418 -449.4142 nan 110.00%
0+ 0 nan nan -35.8137 -449.4142 nan ---
0 0 -36.6532 2 -35.8137 -36.6532 102 2.34%
0 0 -36.6532 2 -35.8137 Fract:1 108 2.34%
0+ 0 nan nan -36.6299 -36.6532 nan 0.06%
0 2 -36.6532 2 -36.6299 -36.6532 108 0.06%
CPXPARAM_MIP_Cuts_Gomory-Disjunctive-MIRCut:Gomory 0
CPXPARAM_MIP_Cuts_Gomory-Disjunctive-MIRCut:Disjunctive 1
CPXPARAM_MIP_Cuts_Gomory-Disjunctive-MIRCut:MIRCut 0
12
Node Left Objective IInf Best_Integer Best_Bound ItCnt Gap
0+ 0 nan nan 4258.0012 -425.8001 nan 110.00%
0+ 0 nan nan 56.1876 -425.8001 nan 857.82%
0 0 36.5391 10 56.1876 36.5391 103 34.97%
0 0 37.1057 9 56.1876 Fract:7 118 33.96%
0+ 0 nan nan 51.6308 37.1057 nan 28.13%
0 0 38.1521 9 51.6308 Fract:9 135 26.11%
0 0 38.3055 11 51.6308 Fract:5 146 25.81%
0 0 38.6861 11 51.6308 Fract:6 157 25.07%
0 0 38.8221 11 51.6308 Fract:5 169 24.81%
0 0 38.8699 11 51.6308 Fract:1 175 24.72%
0+ 0 nan nan 50.0222 38.8699 nan 22.29%
0 0 38.9302 11 50.0222 Fract:3 180 22.17%
0 2 38.9302 11 50.0222 38.9702 180 22.09%
CPXPARAM_MIP_Cuts_Gomory-Disjunctive-MIRCut:Gomory 0
CPXPARAM_MIP_Cuts_Gomory-Disjunctive-MIRCut:Disjunctive 10
CPXPARAM_MIP_Cuts_Gomory-Disjunctive-MIRCut:MIRCut 0
13
Node Left Objective IInf Best_Integer Best_Bound ItCnt Gap
0+ 0 nan nan 3742.2366 -374.2237 nan 110.00%
0+ 0 nan nan -13.4995 -374.2237 nan ---
0 0 -33.1480 9 -13.4995 -33.1480 92 145.55%
0 0 -32.5772 11 -13.4995 Fract:8 109 141.32%
0+ 0 nan nan -18.0563 -32.5772 nan 80.42%
0 0 -31.5370 12 -18.0563 Fract:6 124 74.66%
0 0 -31.4033 12 -18.0563 Fract:7 138 73.92%
0 0 -31.1922 12 -18.0563 Fract:7 148 72.75%
0 0 -31.0430 9 -18.0563 Fract:2 156 71.92%
0+ 0 nan nan -18.3793 -31.0430 nan 68.90%
0 0 -31.0363 12 -18.3793 Fract:1 159 68.87%
0 2 -31.0363 12 -18.3793 -31.0363 159 68.87%
CPXPARAM_MIP_Cuts_Gomory-Disjunctive-MIRCut:Gomory 0
CPXPARAM_MIP_Cuts_Gomory-Disjunctive-MIRCut:Disjunctive 10
CPXPARAM_MIP_Cuts_Gomory-Disjunctive-MIRCut:MIRCut 0
14
Node Left Objective IInf Best_Integer Best_Bound ItCnt Gap
0+ 0 nan nan 4547.8366 -454.7837 nan 110.00%
0+ 0 nan nan 37.3980 -454.7837 nan ---
0 0 33.6408 6 37.3980 33.6408 101 10.05%
0 0 33.6408 4 37.3980 Fract:4 108 10.05%
0 0 33.6408 5 37.3980 Fract:2 113 10.05%
0 0 33.6408 4 37.3980 Fract:2 116 10.05%
0 2 33.6408 4 37.3980 33.6408 116 10.05%
CPXPARAM_MIP_Cuts_Gomory-Disjunctive-MIRCut:Gomory 0
CPXPARAM_MIP_Cuts_Gomory-Disjunctive-MIRCut:Disjunctive 6
CPXPARAM_MIP_Cuts_Gomory-Disjunctive-MIRCut:MIRCut 0
15
Node Left Objective IInf Best_Integer Best_Bound ItCnt Gap
0+ 0 nan nan 4058.6248 -405.8625 nan 110.00%
0+ 0 nan nan -38.8823 -405.8625 nan 943.82%
0 0 -42.6396 4 -38.8823 -42.6396 99 9.66%
0 0 -42.6396 4 -38.8823 Fract:4 106 9.66%
0 0 -42.6396 4 -38.8823 Fract:1 108 9.66%
0 2 -42.6396 4 -38.8823 -42.6396 108 9.66%
CPXPARAM_MIP_Cuts_Gomory-Disjunctive-MIRCut:Gomory 0
CPXPARAM_MIP_Cuts_Gomory-Disjunctive-MIRCut:Disjunctive 5
CPXPARAM_MIP_Cuts_Gomory-Disjunctive-MIRCut:MIRCut 0
16
Node Left Objective IInf Best_Integer Best_Bound ItCnt Gap
0+ 0 nan nan 4374.4391 -437.4439 nan 110.00%
0+ 0 nan nan 63.6896 -437.4439 nan 786.84%
0 0 42.8442 6 63.6896 42.8442 92 32.73%
0 0 42.8442 6 63.6896 Fract:3 99 32.73%
0+ 0 nan nan 48.7695 42.8442 nan 12.15%
0 0 43.2465 9 48.7695 Fract:2 105 11.32%
0 0 43.7860 9 48.7695 Fract:5 115 10.22%
0 0 43.8969 9 48.7695 Fract:6 123 9.99%
0 0 44.0857 11 48.7695 Fract:6 136 9.60%
0 0 44.2065 9 48.7695 Fract:6 151 9.36%
0 2 44.2176 8 48.7695 44.2503 151 9.27%
CPXPARAM_MIP_Cuts_Gomory-Disjunctive-MIRCut:Gomory 0
CPXPARAM_MIP_Cuts_Gomory-Disjunctive-MIRCut:Disjunctive 10
CPXPARAM_MIP_Cuts_Gomory-Disjunctive-MIRCut:MIRCut 0
17
Node Left Objective IInf Best_Integer Best_Bound ItCnt Gap
0+ 0 nan nan 3327.9222 -332.7922 nan 110.00%
0+ 0 nan nan 7.5964 -332.7922 nan ---
0 0 -13.2491 8 7.5964 -13.2491 85 274.41%
0 0 -13.2366 12 7.5964 Fract:5 97 274.25%
0+ 0 nan nan -6.7253 -13.2366 nan 96.82%
0 0 -12.3335 8 -6.7253 Fract:5 108 83.39%
0+ 0 nan nan -7.3238 -12.3335 nan 68.40%
0 0 -12.2656 9 -7.3238 Fract:5 112 67.48%
0 0 -12.0985 9 -7.3238 Fract:6 126 65.20%
0 0 -12.0556 9 -7.3238 Fract:7 134 64.61%
0 0 -12.0494 11 -7.3238 Fract:1 139 64.52%
0 2 -12.0348 10 -7.3238 -11.9837 139 63.63%
CPXPARAM_MIP_Cuts_Gomory-Disjunctive-MIRCut:Gomory 0
CPXPARAM_MIP_Cuts_Gomory-Disjunctive-MIRCut:Disjunctive 9
CPXPARAM_MIP_Cuts_Gomory-Disjunctive-MIRCut:MIRCut 0
18
Node Left Objective IInf Best_Integer Best_Bound ItCnt Gap
0+ 0 nan nan 3764.3804 -376.4380 nan 110.00%
0+ 0 nan nan 51.9989 -376.4380 nan 823.93%
0 0 48.9448 2 51.9989 48.9448 90 5.87%
0 0 48.9448 2 51.9989 Fract:1 92 5.87%
0+ 0 nan nan 48.9869 48.9448 nan 0.09%
0+ 0 nan nan 48.9650 48.9448 nan 0.04%
0 2 48.9448 2 48.9650 48.9448 94 0.04%
CPXPARAM_MIP_Cuts_Gomory-Disjunctive-MIRCut:Gomory 0
CPXPARAM_MIP_Cuts_Gomory-Disjunctive-MIRCut:Disjunctive 1
CPXPARAM_MIP_Cuts_Gomory-Disjunctive-MIRCut:MIRCut 0
19
Node Left Objective IInf Best_Integer Best_Bound ItCnt Gap
0+ 0 nan nan 3802.5481 -380.2548 nan 110.00%
0+ 0 nan nan -24.4337 -380.2548 nan ---
0 0 -27.4879 4 -24.4337 -27.4879 91 12.50%
0 0 -27.4879 2 -24.4337 Fract:2 94 12.50%
0+ 0 nan nan -27.4457 -27.4879 nan 0.15%
0+ 0 nan nan -27.4676 -27.4879 nan 0.07%
0 2 -27.4879 2 -27.4676 -27.4879 98 0.07%
CPXPARAM_MIP_Cuts_Gomory-Disjunctive-MIRCut:Gomory 0
CPXPARAM_MIP_Cuts_Gomory-Disjunctive-MIRCut:Disjunctive 2
CPXPARAM_MIP_Cuts_Gomory-Disjunctive-MIRCut:MIRCut 0
20
Node Left Objective IInf Best_Integer Best_Bound ItCnt Gap
0+ 0 nan nan 3023.0049 -302.3005 nan 110.00%
0+ 0 nan nan 38.6876 -302.3005 nan 881.39%
0 0 28.0444 8 38.6876 28.0444 110 27.51%
0 0 28.0540 11 38.6876 Fract:6 125 27.49%
0 0 28.7531 9 38.6876 Fract:3 142 25.68%
0+ 0 nan nan 32.3938 28.7531 nan 11.24%
0 0 29.0623 9 32.3938 Fract:7 158 10.28%
0 0 29.1958 9 32.3938 Fract:5 172 9.87%
0 0 29.2548 9 32.3938 Fract:6 190 9.69%
0 0 29.2673 9 32.3938 Fract:2 198 9.65%
0 0 cutoff 32.3938 29.2673 198 9.65% 0
CPXPARAM_MIP_Cuts_Gomory-Disjunctive-MIRCut:Gomory 0
CPXPARAM_MIP_Cuts_Gomory-Disjunctive-MIRCut:Disjunctive 8
CPXPARAM_MIP_Cuts_Gomory-Disjunctive-MIRCut:MIRCut 0
21
Node Left Objective IInf Best_Integer Best_Bound ItCnt Gap
0+ 0 nan nan 3066.6850 -306.6685 nan 110.00%
0+ 0 nan nan -23.0829 -306.6685 nan ---
0 0 -33.7261 13 -23.0829 -33.7261 120 46.11%
0 0 -33.7261 8 -23.0829 Fract:3 127 46.11%
0 0 -32.9148 11 -23.0829 Fract:5 143 42.59%
0 0 -32.6470 11 -23.0829 Fract:10 159 41.43%
0+ 0 nan nan -28.0234 -32.6470 nan 16.50%
0 0 -32.5067 11 -28.0234 Fract:9 170 16.00%
0 0 -32.4343 14 -28.0234 Fract:3 184 15.74%
0 0 -32.3967 14 -28.0234 Fract:3 197 15.61%
0+ 0 nan nan -28.0758 -32.3967 nan 15.39%
0+ 0 nan nan -28.4150 -32.3967 nan 14.01%
0+ 0 nan nan -28.7041 -32.3967 nan 12.86%
0 2 -32.2228 11 -28.7041 -32.2228 197 12.26%
CPXPARAM_MIP_Cuts_Gomory-Disjunctive-MIRCut:Gomory 0
CPXPARAM_MIP_Cuts_Gomory-Disjunctive-MIRCut:Disjunctive 9
CPXPARAM_MIP_Cuts_Gomory-Disjunctive-MIRCut:MIRCut 0
22
Node Left Objective IInf Best_Integer Best_Bound ItCnt Gap
0+ 0 nan nan 3115.9138 -311.5914 nan 110.00%
0+ 0 nan nan 28.6729 -311.5914 nan ---
0 0 27.1153 4 28.6729 27.1153 103 5.43%
0 0 27.1153 2 28.6729 Fract:3 108 5.43%
0 0 27.1153 2 28.6729 Fract:1 110 5.43%
0 0 27.1153 2 28.6729 Fract:1 112 5.43%
0 2 27.1153 2 28.6729 27.1153 112 5.43%
CPXPARAM_MIP_Cuts_Gomory-Disjunctive-MIRCut:Gomory 0
CPXPARAM_MIP_Cuts_Gomory-Disjunctive-MIRCut:Disjunctive 5
CPXPARAM_MIP_Cuts_Gomory-Disjunctive-MIRCut:MIRCut 0
23
Node Left Objective IInf Best_Integer Best_Bound ItCnt Gap
0+ 0 nan nan 3219.7432 -321.9743 nan 110.00%
0+ 0 nan nan -36.7602 -321.9743 nan 775.88%
0 0 -38.3178 9 -36.7602 -38.3178 128 4.24%
0 0 -38.3178 6 -36.7602 Fract:8 140 4.24%
0 0 -38.3178 5 -36.7602 Fract:3 145 4.24%
0 0 -38.3178 4 -36.7602 Fract:2 148 4.24%
0 2 -38.3178 4 -36.7602 -38.3178 148 4.24%
CPXPARAM_MIP_Cuts_Gomory-Disjunctive-MIRCut:Gomory 0
CPXPARAM_MIP_Cuts_Gomory-Disjunctive-MIRCut:Disjunctive 12
CPXPARAM_MIP_Cuts_Gomory-Disjunctive-MIRCut:MIRCut 0
24
Node Left Objective IInf Best_Integer Best_Bound ItCnt Gap
0+ 0 nan nan 3687.2890 -368.7289 nan 110.00%
0+ 0 nan nan 43.2506 -368.7289 nan 952.54%
0 0 31.9673 10 43.2506 31.9673 102 26.09%
0 0 32.0126 8 43.2506 Fract:5 114 25.98%
0 0 32.4303 8 43.2506 Fract:5 127 25.02%
0+ 0 nan nan 39.4230 32.4303 nan 17.74%
0 0 32.7663 9 39.4230 Fract:3 137 16.89%
0+ 0 nan nan 37.0340 32.7663 nan 11.52%
0 0 32.7888 8 37.0340 Fract:2 145 11.46%
0 0 32.8148 8 37.0340 Fract:3 152 11.39%
0 2 32.8364 7 37.0340 32.8786 152 11.22%
CPXPARAM_MIP_Cuts_Gomory-Disjunctive-MIRCut:Gomory 0
CPXPARAM_MIP_Cuts_Gomory-Disjunctive-MIRCut:Disjunctive 7
CPXPARAM_MIP_Cuts_Gomory-Disjunctive-MIRCut:MIRCut 0
25
Node Left Objective IInf Best_Integer Best_Bound ItCnt Gap
0+ 0 nan nan 3761.3434 -376.1343 nan 110.00%
0+ 0 nan nan -32.7168 -376.1343 nan ---
0 0 -44.0001 9 -32.7168 -44.0001 119 34.49%
0 0 -43.9545 13 -32.7168 Fract:8 142 34.35%
0 0 -43.5369 16 -32.7168 Fract:8 157 33.07%
0+ 0 nan nan -35.8571 -43.5369 nan 21.42%
0 0 -43.2011 19 -35.8571 Fract:7 173 20.48%
0 0 -43.1786 14 -35.8571 Fract:5 188 20.42%
0 0 -43.1525 13 -35.8571 Fract:6 199 20.35%
0+ 0 nan nan -37.3949 -43.1525 nan 15.40%
0+ 0 nan nan -37.8135 -43.1525 nan 14.12%
0 2 -43.1309 12 -37.8135 -43.0888 199 13.95%
CPXPARAM_MIP_Cuts_Gomory-Disjunctive-MIRCut:Gomory 0
CPXPARAM_MIP_Cuts_Gomory-Disjunctive-MIRCut:Disjunctive 8
CPXPARAM_MIP_Cuts_Gomory-Disjunctive-MIRCut:MIRCut 0
26
Node Left Objective IInf Best_Integer Best_Bound ItCnt Gap
0+ 0 nan nan 3711.4466 -371.1447 nan 110.00%
0+ 0 nan nan 33.2793 -371.1447 nan ---
0 0 31.7258 2 33.2793 31.7258 133 4.67%
0+ 0 nan nan 33.1336 31.7258 nan 4.25%
0 0 31.7258 2 33.1336 Fract:2 137 4.25%
0 0 31.7258 2 33.1336 Fract:1 139 4.25%
0 2 31.7258 2 33.1336 31.7258 139 4.25%
CPXPARAM_MIP_Cuts_Gomory-Disjunctive-MIRCut:Gomory 0
CPXPARAM_MIP_Cuts_Gomory-Disjunctive-MIRCut:Disjunctive 3
CPXPARAM_MIP_Cuts_Gomory-Disjunctive-MIRCut:MIRCut 0
27
Node Left Objective IInf Best_Integer Best_Bound ItCnt Gap
0+ 0 nan nan 3421.5786 -342.1579 nan 110.00%
0 0 -33.8071 9 3421.5786 -33.8071 110 100.99%
0+ 0 nan nan -30.4260 -33.8071 nan 11.11%
0 0 -33.8071 2 -30.4260 Cuts:8 121 11.11%
0 0 -33.8071 2 -30.4260 Cuts:2 123 11.11%
0 0 -33.8071 2 -30.4260 Cuts:2 125 11.11%
0+ 0 nan nan -32.3726 -33.8071 nan 4.43%
0 2 -33.8071 2 -32.3726 -33.8071 125 4.43%
CPXPARAM_MIP_Cuts_Gomory-Disjunctive-MIRCut:Gomory 0
CPXPARAM_MIP_Cuts_Gomory-Disjunctive-MIRCut:Disjunctive 4
CPXPARAM_MIP_Cuts_Gomory-Disjunctive-MIRCut:MIRCut 8
28
Node Left Objective IInf Best_Integer Best_Bound ItCnt Gap
0+ 0 nan nan 4639.1808 -463.9181 nan 110.00%
0+ 0 nan nan 65.2464 -463.9181 nan 811.02%
0 0 58.0744 8 65.2464 58.0744 92 10.99%
0 0 58.0872 9 65.2464 Fract:4 101 10.97%
0 0 58.7818 9 65.2464 Fract:5 114 9.91%
0 0 59.0991 9 65.2464 Fract:8 122 9.42%
0 0 59.2071 12 65.2464 Fract:7 128 9.26%
0 0 59.3221 12 65.2464 Fract:9 137 9.08%
0 0 59.3451 12 65.2464 Fract:3 140 9.04%
0 2 59.4374 10 65.2464 59.4379 140 8.90%
CPXPARAM_MIP_Cuts_Gomory-Disjunctive-MIRCut:Gomory 0
CPXPARAM_MIP_Cuts_Gomory-Disjunctive-MIRCut:Disjunctive 11
CPXPARAM_MIP_Cuts_Gomory-Disjunctive-MIRCut:MIRCut 0
29
Node Left Objective IInf Best_Integer Best_Bound ItCnt Gap
0+ 0 nan nan 3694.7313 -369.4731 nan 110.00%
0+ 0 nan nan 0.7963 -369.4731 nan ---
0 0 -6.3757 11 0.7963 -6.3757 101 900.69%
0 0 -6.3684 12 0.7963 Fract:6 118 899.77%
0 0 -5.6787 12 0.7963 Fract:7 130 813.15%
0 0 -5.2606 13 0.7963 Fract:9 146 760.65%
0 0 -5.2161 13 0.7963 Fract:6 165 755.05%
0 0 -5.1713 15 0.7963 Fract:10 181 749.43%
0 0 -5.1137 12 0.7963 Fract:1 195 742.20%
0 0 -5.1099 12 0.7963 Fract:2 199 741.72%
0 2 -5.1099 12 0.7963 -5.1093 199 741.64%
CPXPARAM_MIP_Cuts_Gomory-Disjunctive-MIRCut:Gomory 0
CPXPARAM_MIP_Cuts_Gomory-Disjunctive-MIRCut:Disjunctive 9
CPXPARAM_MIP_Cuts_Gomory-Disjunctive-MIRCut:MIRCut 0
30
Node Left Objective IInf Best_Integer Best_Bound ItCnt Gap
0+ 0 nan nan 4002.5073 -400.2507 nan 110.00%
0+ 0 nan nan 65.9595 -400.2507 nan 706.81%
0 0 64.4411 2 65.9595 64.4411 95 2.30%
0+ 0 nan nan 65.3965 64.4411 nan 1.46%
0 0 64.4411 2 65.3965 Fract:1 97 1.46%
0+ 0 nan nan 64.4435 64.4411 nan 0.00%
CPXPARAM_MIP_Cuts_Gomory-Disjunctive-MIRCut:Gomory 0
CPXPARAM_MIP_Cuts_Gomory-Disjunctive-MIRCut:Disjunctive 1
CPXPARAM_MIP_Cuts_Gomory-Disjunctive-MIRCut:MIRCut 0
31
Node Left Objective IInf Best_Integer Best_Bound ItCnt Gap
0+ 0 nan nan 4093.9107 -409.3911 nan 110.00%
0+ 0 nan nan -16.8328 -409.3911 nan ---
0 0 -18.3511 8 -16.8328 -18.3511 99 9.02%
0+ 0 nan nan -17.0665 -18.3511 nan 7.53%
0 0 -18.3511 4 -17.0665 Fract:7 111 7.53%
0+ 0 nan nan -18.0441 -18.3511 nan 1.70%
0 0 -18.3511 2 -18.0441 Fract:1 112 1.70%
0+ 0 nan nan -18.3487 -18.3511 nan 0.01%
0 2 -18.3511 2 -18.3487 -18.3511 116 0.01%
CPXPARAM_MIP_Cuts_Gomory-Disjunctive-MIRCut:Gomory 0
CPXPARAM_MIP_Cuts_Gomory-Disjunctive-MIRCut:Disjunctive 7
CPXPARAM_MIP_Cuts_Gomory-Disjunctive-MIRCut:MIRCut 0
32
Node Left Objective IInf Best_Integer Best_Bound ItCnt Gap
0+ 0 nan nan 2782.2146 -278.2215 nan 110.00%
0+ 0 nan nan 51.8003 -278.2215 nan 637.10%
0 0 40.6477 6 51.8003 40.6477 100 21.53%
0 0 40.7453 8 51.8003 Fract:5 113 21.34%
0 0 41.2396 9 51.8003 Fract:5 126 20.39%
0+ 0 nan nan 44.9280 41.2396 nan 8.21%
0 0 41.5183 9 44.9280 Fract:5 133 7.59%
0 0 41.5636 8 44.9280 Fract:4 136 7.49%
0 0 41.5805 9 44.9280 Fract:1 140 7.45%
0 2 41.6416 6 44.9280 41.6421 140 7.31%
CPXPARAM_MIP_Cuts_Gomory-Disjunctive-MIRCut:Gomory 0
CPXPARAM_MIP_Cuts_Gomory-Disjunctive-MIRCut:Disjunctive 8
CPXPARAM_MIP_Cuts_Gomory-Disjunctive-MIRCut:MIRCut 0
33
Node Left Objective IInf Best_Integer Best_Bound ItCnt Gap
0+ 0 nan nan 3349.6902 -334.9690 nan 110.00%
0+ 0 nan nan -20.8683 -334.9690 nan ---
0 0 -32.0209 8 -20.8683 -32.0209 98 53.44%
0 0 -31.9222 11 -20.8683 Fract:7 114 52.97%
0 0 -31.2971 12 -20.8683 Fract:7 128 49.97%
0+ 0 nan nan -27.7405 -31.2971 nan 12.82%
0 0 -31.1189 11 -27.7405 Fract:6 136 12.18%
0 0 -31.0687 9 -27.7405 Fract:6 146 12.00%
0 0 -30.9444 13 -27.7405 Fract:3 157 11.55%
0 2 -30.8419 9 -27.7405 -30.8415 157 11.18%
CPXPARAM_MIP_Cuts_Gomory-Disjunctive-MIRCut:Gomory 0
CPXPARAM_MIP_Cuts_Gomory-Disjunctive-MIRCut:Disjunctive 9
CPXPARAM_MIP_Cuts_Gomory-Disjunctive-MIRCut:MIRCut 0
34
Node Left Objective IInf Best_Integer Best_Bound ItCnt Gap
0+ 0 nan nan 3811.0022 -381.1002 nan 110.00%
0+ 0 nan nan 40.8428 -381.1002 nan ---
0 0 30.3598 2 40.8428 30.3598 97 25.67%
0+ 0 nan nan 32.0719 30.3598 nan 5.34%
0 0 30.3598 2 32.0719 Fract:2 101 5.34%
0 0 30.3598 2 32.0719 Fract:1 103 5.34%
0+ 0 nan nan 31.0718 30.3598 nan 2.29%
0 2 30.3598 2 31.0718 30.3598 103 2.29%
CPXPARAM_MIP_Cuts_Gomory-Disjunctive-MIRCut:Gomory 0
CPXPARAM_MIP_Cuts_Gomory-Disjunctive-MIRCut:Disjunctive 3
CPXPARAM_MIP_Cuts_Gomory-Disjunctive-MIRCut:MIRCut 0
35
Node Left Objective IInf Best_Integer Best_Bound ItCnt Gap
0+ 0 nan nan 3356.6483 -335.6648 nan 110.00%
0+ 0 nan nan -21.7467 -335.6648 nan ---
0 0 -32.2296 2 -21.7467 -32.2296 127 48.21%
0+ 0 nan nan -30.5175 -32.2296 nan 5.61%
0 0 -32.2296 2 -30.5175 Fract:2 131 5.61%
0 0 -32.2296 2 -30.5175 Fract:1 133 5.61%
0+ 0 nan nan -31.5176 -32.2296 nan 2.26%
0 2 -32.2296 2 -31.5176 -32.2296 133 2.26%
CPXPARAM_MIP_Cuts_Gomory-Disjunctive-MIRCut:Gomory 0
CPXPARAM_MIP_Cuts_Gomory-Disjunctive-MIRCut:Disjunctive 3
CPXPARAM_MIP_Cuts_Gomory-Disjunctive-MIRCut:MIRCut 0
36
Node Left Objective IInf Best_Integer Best_Bound ItCnt Gap
0+ 0 nan nan 4588.3495 -458.8350 nan 110.00%
0+ 0 nan nan 49.9629 -458.8350 nan ---
0 0 35.1558 9 49.9629 35.1558 105 29.64%
0 0 35.1573 11 49.9629 Fract:7 118 29.63%
0 0 35.7727 12 49.9629 Fract:4 131 28.40%
0 0 36.0034 11 49.9629 Fract:7 142 27.94%
0 0 36.1418 13 49.9629 Fract:8 153 27.66%
0 0 36.2801 12 49.9629 Fract:8 161 27.39%
0 0 36.2845 12 49.9629 Fract:3 166 27.38%
0+ 0 nan nan 47.1397 36.2845 nan 23.03%
0+ 0 nan nan 43.9087 36.2845 nan 17.36%
0 2 36.2845 12 43.9087 36.2868 166 17.36%
CPXPARAM_MIP_Cuts_Gomory-Disjunctive-MIRCut:Gomory 0
CPXPARAM_MIP_Cuts_Gomory-Disjunctive-MIRCut:Disjunctive 10
CPXPARAM_MIP_Cuts_Gomory-Disjunctive-MIRCut:MIRCut 0
37
Node Left Objective IInf Best_Integer Best_Bound ItCnt Gap
0+ 0 nan nan 4450.7541 -445.0754 nan 110.00%
0+ 0 nan nan -37.6763 -445.0754 nan ---
0 0 -52.4834 11 -37.6763 -52.4834 108 39.30%
0 0 -52.4834 9 -37.6763 Fract:7 121 39.30%
0 0 -52.0475 13 -37.6763 Fract:7 140 38.14%
0 0 -51.6162 14 -37.6763 Fract:12 161 37.00%
0 0 -51.5196 13 -37.6763 Fract:11 172 36.74%
0+ 0 nan nan -43.3485 -51.5196 nan 18.85%
0 0 -51.5009 13 -43.3485 Fract:1 178 18.81%
0 0 -51.4164 13 -43.3485 Fract:4 193 18.61%
0 2 -51.4164 13 -43.3485 -51.3505 193 18.46%
CPXPARAM_MIP_Cuts_Gomory-Disjunctive-MIRCut:Gomory 0
CPXPARAM_MIP_Cuts_Gomory-Disjunctive-MIRCut:Disjunctive 6
CPXPARAM_MIP_Cuts_Gomory-Disjunctive-MIRCut:MIRCut 0
38
Node Left Objective IInf Best_Integer Best_Bound ItCnt Gap
0+ 0 nan nan 3824.8352 -382.4835 nan 110.00%
0 0 42.7909 4 3824.8352 42.7909 97 98.88%
0+ 0 nan nan 45.2604 42.7909 nan 5.46%
0 0 42.7909 2 45.2604 Cuts:5 102 5.46%
0 0 42.7909 2 45.2604 Cuts:2 104 5.46%
0+ 0 nan nan 44.4764 42.7909 nan 3.79%
0 0 42.7909 2 44.4764 Fract:1 106 3.79%
0 2 42.7909 2 44.4764 42.7909 106 3.79%
CPXPARAM_MIP_Cuts_Gomory-Disjunctive-MIRCut:Gomory 0
CPXPARAM_MIP_Cuts_Gomory-Disjunctive-MIRCut:Disjunctive 3
CPXPARAM_MIP_Cuts_Gomory-Disjunctive-MIRCut:MIRCut 5
39
Node Left Objective IInf Best_Integer Best_Bound ItCnt Gap
0+ 0 nan nan 4523.6595 -452.3660 nan 110.00%
0+ 0 nan nan -52.2183 -452.3660 nan 766.30%
0 0 -54.6705 7 -52.2183 -54.6705 107 4.70%
0 0 -54.6705 4 -52.2183 Fract:7 119 4.70%
0 0 -54.6705 2 -52.2183 Fract:2 122 4.70%
0+ 0 nan nan -52.5794 -54.6705 nan 3.98%
0 0 -54.6705 2 -52.5794 Fract:1 124 3.98%
0 0 -54.6705 2 -52.5794 Fract:1 126 3.98%
0 2 -54.6705 2 -52.5794 -54.6705 126 3.98%
CPXPARAM_MIP_Cuts_Gomory-Disjunctive-MIRCut:Gomory 0
CPXPARAM_MIP_Cuts_Gomory-Disjunctive-MIRCut:Disjunctive 10
CPXPARAM_MIP_Cuts_Gomory-Disjunctive-MIRCut:MIRCut 0
